
Gurobi 9.5.2 (mac64[arm], Python) logging started Mon Aug 29 13:21:50 2022

Set parameter Username
Set parameter LogFile to value "gurobi.log"
Academic license - for non-commercial use only - expires 2023-08-23
